NAME :  IRP
COMMENT : 
TYPE :  CVRP
DIMENSION : 	47
EDGE_WEIGHT_TYPE : 	EUC_2D
CAPACITY : 	4243
NODE_COORD_SECTION
1	452	353
2	95	56
3	15	158
4	30	139
5	190	7
6	173	30
7	240	79
8	65	262
9	52	257
10	78	264
11	93	358
12	13	304
13	76	343
14	329	55
15	348	5
16	259	74
17	457	32
18	441	37
19	478	55
20	481	22
21	154	386
22	167	484
23	181	275
24	292	206
25	488	230
26	499	188
27	305	478
28	281	478
29	305	449
30	267	332
31	471	461
32	447	403
33	123	382
34	100	381
35	143	92
36	104	340
37	296	22
38	189	231
39	465	86
40	388	103
41	209	252
42	316	373
43	298	365
44	267	369
45	279	270
46	377	419
47	413	460
DEMAND_SECTION
1	0
2	122
3	104
4	24
5	64
6	162
7	46
8	176
9	94
10	196
11	102
12	70
13	32
14	176
15	132
16	64
17	136
18	158
19	164
20	22
21	114
22	178
23	190
24	50
25	196
26	142
27	94
28	166
29	20
30	102
31	68
32	156
33	195
34	69
35	42
36	189
37	180
38	51
39	108
40	282
41	150
42	96
43	183
44	111
45	54
46	75
47	60
DEPOT_SECTION
	1
	-1
EOF
